p cnf 21 8
e 1 2 0
a 3 0
e 4 5 0
a 6 7 0
e 8 9 0
a 10 11 0
e 12 0
a 13 0
e 14 0
a 15 16 0
e 17 18 0
a 19 20 0
e 21 0
17 21 -16 -1 0
-7 -6 -15 20 2 0
19 -7 -13 11 -4 0
-15 18 -21 -1 -20 0
-5 6 19 -12 0
-7 -8 20 0
-8 -6 -3 0
-14 -16 4 -18 0
